Version identifier: 20.1.0.0 | 2020-11-10 | 9bedb6d68
Tried aggregator 2 times.
MIP Presolve eliminated 1915 rows and 1129 columns.
MIP Presolve modified 3408 coefficients.
Aggregator did 133 substitutions.
Reduced MIP has 1358 rows, 1145 columns, and 4267 nonzeros.
Reduced MIP has 285 binaries, 860 generals, 0 SOSs, and 0 indicators.
Presolve time = 0.02 sec. (7.30 ticks)
Found incumbent of value 42.000000 after 0.03 sec. (12.59 ticks)
Probing fixed 40 vars, tightened 386 bounds.
Probing time = 0.00 sec. (1.52 ticks)
Tried aggregator 2 times.
MIP Presolve eliminated 597 rows and 145 columns.
MIP Presolve modified 169 coefficients.
Aggregator did 58 substitutions.
Reduced MIP has 703 rows, 942 columns, and 2262 nonzeros.
Reduced MIP has 359 binaries, 583 generals, 0 SOSs, and 0 indicators.
Presolve time = 0.01 sec. (3.05 ticks)
Probing time = 0.00 sec. (0.19 ticks)
Tried aggregator 1 time.
Detecting symmetries...
MIP Presolve modified 234 coefficients.
Reduced MIP has 703 rows, 942 columns, and 2262 nonzeros.
Reduced MIP has 359 binaries, 583 generals, 0 SOSs, and 0 indicators.
Presolve time = 0.00 sec. (1.90 ticks)
Probing time = 0.00 sec. (0.18 ticks)
Clique table members: 41.
MIP emphasis: balance optimality and feasibility.
MIP search method: dynamic search.
Parallel mode: deterministic, using up to 24 threads.
Root relaxation solution time = 0.00 sec. (2.07 ticks)

        Nodes                                         Cuts/
   Node  Left     Objective  IInf  Best Integer    Best Bound    ItCnt     Gap

*     0+    0                           42.0000        0.0000           100.00%
      0     0        1.0000    52       42.0000        1.0000      204   97.62%
      0     0        3.0625   101       42.0000     Cuts: 152      508   92.71%
      0     0        4.0800   219       42.0000      Cuts: 82      660   90.29%
      0     0        4.6750   297       42.0000      Cuts: 82      782   88.87%
      0     0        5.1667   308       42.0000      Cuts: 82      939   87.70%
      0     0        5.1905   327       42.0000      Cuts: 72     1058   87.64%
*     0+    0                           14.0000        5.1905            62.93%
      0     0        5.5284   394       14.0000      Cuts: 59     1189   60.51%
      0     0        5.6863   317       14.0000      Cuts: 87     1366   59.38%
*     0+    0                           10.0000        5.6863            43.14%
      0     0        cutoff             10.0000       10.0000     1450    0.00%
Elapsed time = 0.25 sec. (98.20 ticks, tree = 0.01 MB, solutions = 3)

Cover cuts applied:  5
Implied bound cuts applied:  16
Flow cuts applied:  5
Mixed integer rounding cuts applied:  28
Zero-half cuts applied:  120
Gomory fractional cuts applied:  12

Root node processing (before b&c):
  Real time             =    0.25 sec. (98.32 ticks)
Parallel b&c, 24 threads:
  Real time             =    0.00 sec. (0.00 ticks)
  Sync time (average)   =    0.00 sec.
  Wait time (average)   =    0.00 sec.
                          ------------
Total (root+branch&cut) =    0.25 sec. (98.32 ticks)

Solution status = Optimal
Solution LB = 10
Solution UB = 10
Runtime = 0.257974 seconds
	Command being timed: "/home/min/git_repos/CS598MEBProject/CNT-ILP/build/cnt -s 2 ./output/k6_n40/simC_c1_k6_n40_u1_s3_del04.input-right.cnp"
	User time (seconds): 2.56
	System time (seconds): 0.08
	Percent of CPU this job got: 944%
	Elapsed (wall clock) time (h:mm:ss or m:ss): 0:00.28
	Average shared text size (kbytes): 0
	Average unshared data size (kbytes): 0
	Average stack size (kbytes): 0
	Average total size (kbytes): 0
	Maximum resident set size (kbytes): 89500
	Average resident set size (kbytes): 0
	Major (requiring I/O) page faults: 0
	Minor (reclaiming a frame) page faults: 19869
	Voluntary context switches: 4266
	Involuntary context switches: 324
	Swaps: 0
	File system inputs: 0
	File system outputs: 16
	Socket messages sent: 0
	Socket messages received: 0
	Signals delivered: 0
	Page size (bytes): 4096
	Exit status: 0
